proyfinal/src/viki/013/experimentInOfficeAgust.take6.output/f11b7558-ca3f-4d4e-86c5-82064c9c3fe1.als.dat
{'cnf.clauses': '118081',
 'cnf.totvars': '69608',
 'conflict literals': '1375',
 'conflicts': '223',
 'decisions': '8486',
 'memused.mb': '15.46',
 'outcome': 'UNSAT',
 'propagations': '313561',
 'restarts': '3',
 'solver.msecs': 43,
 'task.msecs': 95}
