proyfinal/src/viki/013/experimentInOfficeAgust.take6.output/f11b7558-ca3f-4d4e-86c5-82064c9c3fe1.als.out
Reading from standard input... Use '--help' for help.
============================[ Problem Statistics ]=============================
|                                                                             |
|  Number of variables:         69608                                         |
|  Number of clauses:          118081                                         |
|  Parse time:                   0.02 s                                       |
|                                                                             |
============================[ Search Statistics ]==============================
| Conflicts |          ORIGINAL         |          LEARNT          | Progress |
|           |    Vars  Clauses Literals |    Limit  Clauses Lit/Cl |          |
===============================================================================
|       100 |   57063    81948   203091 |    30047       98      7 | 18.022 % |
===============================================================================
restarts              : 3
conflicts             : 223            (5090 /sec)
decisions             : 8486           (0.00 % random) (193700 /sec)
propagations          : 313561         (7157293 /sec)
conflict literals     : 1375           (27.59 % deleted)
Memory used           : 15.46 MB
CPU time              : 0.04381 s

UNSATISFIABLE
